\* name *\
Minimize
OBJ: 0.69 X0 + 0.64 X1 + 5.94 X10 + 7.68 X11 + 1.01 X12 + 0.75 X13 + 0.88 X14
 + 0.59 X15 + 1.5 X16 + 2.63 X17 + 2.26 X18 + 5.64 X19 + 0.71 X2 + 5.85 X20
 + 5.62 X21 + 5.85 X22 + 4.94 X23 + 1.05 X24 + 1.06 X25 + 1.08 X26 + 0.64 X27
 + 1.22 X28 + 2.37 X29 + 0.79 X3 + 1.66 X30 + 5.64 X31 + 5.91 X32 + 5.62 X33
 + 5.91 X34 + 4.94 X35 + 1.94 X36 + 1.5 X37 + 1.56 X38 + 1.22 X39 + 1.7 X4
 + 1.98 X40 + 1.98 X41 + 1.36 X42 + 6.99 X43 + 6.99 X44 + 6.99 X45 + 6.99 X46
 + 3.68 X47 + 1.61 X48 + 1.4 X49 + 2.83 X5 + 1.61 X50 + 1.33 X51 + 1.68 X52
 + 2.83 X53 + 1.54 X54 + 4.26 X55 + 4.26 X56 + 4.26 X57 + 4.26 X58 + 2.99 X59
 + 2.02 X6 + 5.29 X60 + 5.94 X61 + 6.08 X62 + 5.29 X63 + 5.96 X64 + 6.77 X65
 + 5.08 X66 + 0.31 X67 + 0.21 X68 + 0.17 X69 + 5.64 X7 + 0.31 X70 + 1.53 X71
 + 5.29 X72 + 5.94 X73 + 6.08 X74 + 5.29 X75 + 5.96 X76 + 6.77 X77 + 5.08 X78
 + 0.55 X79 + 5.94 X8 + 0.35 X80 + 0.4 X81 + 0.19 X82 + 1.53 X83 + 5.29 X84
 + 6.08 X85 + 6.08 X86 + 5.29 X87 + 5.96 X88 + 6.45 X89 + 5.94 X9 + 5.08 X90
 + 2.43 X91 + 2.3 X92 + 2.33 X93 + 1.81 X94 + 2.5 X95
Subject To
A0: X0 + X1 + X10 + X11 + X2 + X3 + X4 + X5 + X6 + X7 + X8 + X9 = 15
A1: X12 + X13 + X14 + X15 + X16 + X17 + X18 + X19 + X20 + X21 + X22 + X23 = 20
A2: X24 + X25 + X26 + X27 + X28 + X29 + X30 + X31 + X32 + X33 + X34 + X35 = 45
A3: X36 + X37 + X38 + X39 + X40 + X41 + X42 + X43 + X44 + X45 + X46 + X47 = 35
A4: X48 + X49 + X50 + X51 + X52 + X53 + X54 + X55 + X56 + X57 + X58 + X59 = 25
A5: X60 + X61 + X62 + X63 + X64 + X65 + X66 + X67 + X68 + X69 + X70 + X71 = 35
A6: X72 + X73 + X74 + X75 + X76 + X77 + X78 + X79 + X80 + X81 + X82 + X83 = 10
A7: X84 + X85 + X86 + X87 + X88 + X89 + X90 + X91 + X92 + X93 + X94 + X95 = 25
B0: X0 + X12 + X24 + X36 + X48 + X60 + X72 + X84 = 20
B1: X1 + X13 + X25 + X37 + X49 + X61 + X73 + X85 = 15
B10: X10 + X22 + X34 + X46 + X58 + X70 + X82 + X94 = 10
B11: X11 + X23 + X35 + X47 + X59 + X71 + X83 + X95 = 5
B2: X14 + X2 + X26 + X38 + X50 + X62 + X74 + X86 = 20
B3: X15 + X27 + X3 + X39 + X51 + X63 + X75 + X87 = 15
B4: X16 + X28 + X4 + X40 + X52 + X64 + X76 + X88 = 5
B5: X17 + X29 + X41 + X5 + X53 + X65 + X77 + X89 = 20
B6: X18 + X30 + X42 + X54 + X6 + X66 + X78 + X90 = 30
B7: X19 + X31 + X43 + X55 + X67 + X7 + X79 + X91 = 10
B8: X20 + X32 + X44 + X56 + X68 + X8 + X80 + X92 = 35
B9: X21 + X33 + X45 + X57 + X69 + X81 + X9 + X93 = 25
G0: X0 <= 0
G1: X1 <= 0
G10: X10 <= 0
G11: X11 <= 0
G12: X12 <= 0
G13: X13 <= 0
G14: X14 <= 0
G15: X15 <= 0
G16: X16 <= 0
G17: X17 <= 0
G18: X18 <= 0
G19: X19 <= 0
G2: X2 <= 0
G20: X20 <= 0
G21: X21 <= 0
G22: X22 <= 0
G23: X23 <= 0
G24: X24 <= 0
G25: X25 <= 0
G26: X26 <= 0
G27: X27 <= 0
G28: X28 <= 0
G29: X29 <= 0
G3: X3 <= 0
G30: X30 <= 0
G31: X31 <= 0
G32: X32 <= 0
G33: X33 <= 0
G34: X34 <= 0
G35: X35 <= 0
G36: X36 <= 0
G37: X37 <= 0
G38: X38 <= 0
G39: X39 <= 0
G4: X4 <= 0
G40: X40 <= 0
G41: X41 <= 0
G42: X42 <= 0
G43: X43 <= 0
G44: X44 <= 0
G45: X45 <= 0
G46: X46 <= 0
G47: X47 <= 0
G48: X48 <= 0
G49: X49 <= 0
G5: X5 <= 0
G50: X50 <= 0
G51: X51 <= 0
G52: X52 <= 0
G53: X53 <= 0
G54: X54 <= 0
G55: X55 <= 0
G56: X56 <= 0
G57: X57 <= 0
G58: X58 <= 0
G59: X59 <= 0
G6: X6 <= 0
G60: X60 <= 0
G61: X61 <= 0
G62: X62 <= 0
G63: X63 <= 0
G64: X64 <= 0
G65: X65 <= 0
G66: X66 <= 0
G67: X67 <= 0
G68: X68 <= 0
G69: X69 <= 0
G7: X7 <= 0
G70: X70 <= 0
G71: X71 <= 0
G72: X72 <= 0
G73: X73 <= 0
G74: X74 <= 0
G75: X75 <= 0
G76: X76 <= 0
G77: X77 <= 0
G78: X78 <= 0
G79: X79 <= 0
G8: X8 <= 0
G80: X80 <= 0
G81: X81 <= 0
G82: X82 <= 0
G83: X83 <= 0
G84: X84 <= 0
G85: X85 <= 0
G86: X86 <= 0
G87: X87 <= 0
G88: X88 <= 0
G89: X89 <= 0
G9: X9 <= 0
G90: X90 <= 0
G91: X91 <= 0
G92: X92 <= 0
G93: X93 <= 0
G94: X94 <= 0
G95: X95 <= 0
End
